
units           real
neigh_modify    delay 0 every 1

atom_style      full
bond_style      harmonic
angle_style     harmonic
dihedral_style  harmonic
improper_style  harmonic

pair_style      lj/cut/coul/long 8 12
pair_modify     mix arithmetic
kspace_style    pppm 1e-6

read_data       data.system

special_bonds   amber
thermo          1
thermo_style    multi

include     group_qm.inp
include     group_ca.inp
group       qm_no_ca subtract qm ca

delete_bonds    qm multi remove
neigh_modify    exclude group qm qm
set             group qm_no_ca charge 0.0

fix             1 all ipi MM8 123 unix
run             1000000
