units           real
neigh_modify    delay 0 every 1 check yes
atom_style      full

pair_style      lj/charmm/coul/long 10 12
pair_modify     mix arithmetic

bond_style      harmonic
angle_style     harmonic
dihedral_style  none
improper_style  none

kspace_style    pppm 1e-5

read_data       water.data

bond_coeff      1   529.581    1.012                 # OW-HW

neighbor        2.0 bin

thermo_style    custom step temp ke pe etotal
thermo          1
thermo_modify   flush yes


fix             1 all ipi cls 123 unix
run             10000000
